50
    35     1    63     2    69    50     8    72    20    21    81    61     9    87    13    11    98    84    20    78    87    13    13    36    19    45    91    72    78    11    46    92    86    12    59    13     7    12     2    73    47    42    36    21    51    98    17    24     5    42
     8    10     3     2     5     2     5     4     8    10     2     7    10     6     1     9     8     5     6     9     1     2     8     3     9     9     4     9     5    10     1     2     6     8    10     2     7     5     1     1     9     3     2     9     3     5     6     8     3     3
   464     0   177   167     0    52     0   241   384   207     0   163     0   489   240   495     0   304   162     0     0     0     0   548     0   608   174     0   150     0     0   456     0     0   467     0   353   518     0   232    68   214   532    28     0     0   420     0    96     0
